qbf_easy_train/easy_1654_SAT.qdimacs
p cnf 25 66
a 21 4 5 0
e 1 2 3 6 7 8 9 10 11 12 13 14 15 16 17 18 19 20 22 23 24 25 0
3 -4 -5 0
-3 4 -5 0
3 4 5 0
-3 -4 5 0
-2 -5 -6 0
2 5 -6 0
-2 5 6 0
2 -5 6 0
7 -1 0
7 6 0
1 -6 -7 0
9 -6 0
9 -8 0
6 8 -9 0
10 -5 0
10 -5 0
5 -10 0
9 10 -11 0
-9 -10 -11 0
9 -10 11 0
-9 10 11 0
12 7 0
12 -11 0
-7 11 -12 0
13 2 -14 0
-13 -2 -14 0
13 -2 14 0
-13 2 14 0
12 14 -15 0
-12 -14 -15 0
12 -14 15 0
-12 14 15 0
1 16 -17 0
-1 -16 -17 0
1 -16 17 0
-1 16 17 0
18 17 0
18 -17 0
-19 18 0
-19 -8 0
-18 8 19 0
-21 20 0
-21 -1 0
-20 1 21 0
19 -21 -22 0
-19 21 -22 0
19 21 22 0
-19 -21 22 0
-1 -16 -23 0
1 16 -23 0
-1 16 23 0
1 -16 23 0
24 -22 0
24 23 0
22 -23 -24 0
15 24 -25 0
-15 -24 -25 0
15 -24 25 0
-15 24 25 0
-17 11 -8 13 7 18 0
-4 -19 1 -13 2 -15 0
-5 -22 -17 0
14 11 22 15 0
24 -20 18 10 16 0
-15 -4 7 22 -9 24 0
25 0
