sat_easy_train/easy_1654_SAT.dimacs
p cnf 110 368
3 -1 0
3 -2 0
1 2 -3 0
-5 3 0
-5 4 0
-3 -4 5 0
2 -6 -7 0
-2 6 -7 0
2 6 7 0
-2 -6 7 0
10 8 0
10 -9 0
-8 9 -10 0
-11 2 0
-11 -10 0
-2 10 11 0
-12 7 0
-12 -11 0
-7 11 12 0
-5 -12 -13 0
5 12 -13 0
-5 12 13 0
5 -12 13 0
13 11 -14 0
-13 -11 -14 0
13 -11 14 0
-13 11 14 0
-15 12 0
-15 -1 0
-12 1 15 0
17 -10 0
17 -16 0
10 16 -17 0
18 17 0
18 1 0
-17 -1 -18 0
-19 -15 0
-19 18 0
15 -18 19 0
10 -16 -20 0
-10 16 -20 0
10 16 20 0
-10 -16 20 0
21 20 0
21 6 0
-20 -6 -21 0
19 -21 -22 0
-19 21 -22 0
19 21 22 0
-19 -21 22 0
-10 -23 -24 0
10 23 -24 0
-10 23 24 0
10 -23 24 0
25 22 0
25 -24 0
-22 24 -25 0
14 -25 -26 0
-14 25 -26 0
14 25 26 0
-14 -25 26 0
28 -27 0
28 4 0
27 -4 -28 0
-29 23 0
-29 28 0
-23 -28 29 0
30 -7 0
30 29 0
7 -29 -30 0
-6 5 -31 0
6 -5 -31 0
-6 -5 31 0
6 5 31 0
-32 -1 0
-32 -23 0
1 23 32 0
33 31 0
33 -32 0
-31 32 -33 0
34 -29 -35 0
-34 29 -35 0
34 29 35 0
-34 -29 35 0
36 -37 -38 0
-36 37 -38 0
36 37 38 0
-36 -37 38 0
-39 -38 0
-39 -2 0
38 2 39 0
40 -35 0
40 -39 0
35 39 -40 0
41 -15 0
41 -40 0
15 40 -41 0
36 39 -42 0
-36 -39 -42 0
36 -39 42 0
-36 39 42 0
-27 -42 -43 0
27 42 -43 0
-27 42 43 0
27 -42 43 0
27 -38 -44 0
-27 38 -44 0
27 38 44 0
-27 -38 44 0
-28 44 -45 0
28 -44 -45 0
-28 -44 45 0
28 44 45 0
-43 -45 -46 0
43 45 -46 0
-43 45 46 0
43 -45 46 0
47 23 0
47 34 0
-23 -34 -47 0
46 -47 -48 0
-46 47 -48 0
46 47 48 0
-46 -47 48 0
-50 -49 0
-50 -6 0
49 6 50 0
51 48 0
51 -50 0
-48 50 -51 0
-52 41 0
-52 -51 0
-41 51 52 0
33 52 -53 0
-33 -52 -53 0
33 -52 53 0
-33 52 53 0
54 30 0
54 -53 0
-30 53 -54 0
34 55 -56 0
-34 -55 -56 0
34 -55 56 0
-34 55 56 0
56 -23 -57 0
-56 23 -57 0
56 23 57 0
-56 -23 57 0
57 -7 -58 0
-57 7 -58 0
57 7 58 0
-57 -7 58 0
-59 34 0
-59 7 0
-34 -7 59 0
60 57 0
60 -59 0
-57 59 -60 0
61 -34 0
61 38 0
34 -38 -61 0
-4 61 -62 0
4 -61 -62 0
-4 -61 62 0
4 61 62 0
63 -60 0
63 62 0
60 -62 -63 0
58 63 -64 0
-58 -63 -64 0
58 -63 64 0
-58 63 64 0
54 -64 -65 0
-54 64 -65 0
54 64 65 0
-54 -64 65 0
-1 -59 -66 0
1 59 -66 0
-1 59 66 0
1 -59 66 0
67 -65 0
67 66 0
65 -66 -67 0
-68 -59 0
-68 34 0
59 -34 68 0
-15 -68 -69 0
15 68 -69 0
-15 68 69 0
15 -68 69 0
-70 59 0
-70 29 0
-59 -29 70 0
-71 -69 0
-71 -70 0
69 70 71 0
-73 -72 0
-73 23 0
72 -23 73 0
-1 11 -74 0
1 -11 -74 0
-1 -11 74 0
1 11 74 0
75 -73 0
75 -74 0
73 74 -75 0
-1 29 -76 0
1 -29 -76 0
-1 -29 76 0
1 29 76 0
18 -76 -77 0
-18 76 -77 0
18 76 77 0
-18 -76 77 0
-43 -68 -78 0
43 68 -78 0
-43 68 78 0
43 -68 78 0
7 78 -79 0
-7 -78 -79 0
7 -78 79 0
-7 78 79 0
-80 77 0
-80 -79 0
-77 79 80 0
-75 80 -81 0
75 -80 -81 0
-75 -80 81 0
75 80 81 0
-82 -71 0
-82 81 0
71 -81 82 0
-83 43 0
-83 73 0
-43 -73 83 0
-84 27 0
-84 -31 0
-27 31 84 0
85 -17 0
85 -73 0
17 73 -85 0
-8 -85 -86 0
8 85 -86 0
-8 85 86 0
8 -85 86 0
-87 -84 0
-87 -86 0
84 86 87 0
88 -56 0
88 49 0
56 -49 -88 0
-89 45 0
-89 88 0
-45 -88 89 0
90 87 0
90 89 0
-87 -89 -90 0
-91 83 0
-91 -90 0
-83 90 91 0
-82 91 -92 0
82 -91 -92 0
-82 -91 92 0
82 91 92 0
-67 92 -93 0
67 -92 -93 0
-67 -92 93 0
67 92 93 0
-94 37 0
-94 55 0
-37 -55 94 0
-32 -39 -95 0
32 39 -95 0
-32 39 95 0
32 -39 95 0
-96 -44 0
-96 28 0
44 -28 96 0
-70 97 -98 0
70 -97 -98 0
-70 -97 98 0
70 97 98 0
99 -96 0
99 98 0
96 -98 -99 0
-100 -95 0
-100 -99 0
95 99 100 0
-101 94 0
-101 100 0
-94 -100 101 0
-102 -43 0
-102 -38 0
43 38 102 0
1 -16 -103 0
-1 16 -103 0
1 16 103 0
-1 -16 103 0
-104 -44 0
-104 103 0
44 -103 104 0
105 -43 0
105 29 0
43 -29 -105 0
-106 104 0
-106 105 0
-104 -105 106 0
-107 102 0
-107 106 0
-102 -106 107 0
-108 101 0
-108 -107 0
-101 107 108 0
109 93 0
109 -108 0
-93 108 -109 0
110 -26 0
110 109 0
26 -109 -110 0
66 -3 -7 0
-70 -41 -61 -83 5 0
35 10 -9 89 0
-99 79 15 -27 63 41 0
24 -26 -45 0
-76 -3 -68 55 -85 0
18 49 -51 32 105 59 0
-34 -70 -101 74 0
-46 102 0
103 -51 21 -45 -13 -19 0
2 -11 64 -86 -101 102 0
74 3 -11 43 89 4 0
44 34 15 6 -59 0
-72 19 0
-44 2 0
-77 -26 91 0
-92 59 4 0
4 -97 44 -101 -53 0
87 95 -89 2 74 0
-61 -90 -101 -64 -58 0
-12 -95 -44 -109 21 0
-74 109 0
58 -92 -60 -16 0
-79 -59 64 -93 -86 0
-73 10 4 0
-53 60 14 17 98 16 0
8 -21 -105 -93 0
9 -10 -13 -98 -54 60 0
-44 81 -41 0
52 -83 28 0
-84 -108 -4 11 67 0
92 59 -86 50 -54 0
84 -72 30 0
-8 66 79 0
37 41 -16 96 0
109 39 -102 0
36 66 0
-4 48 101 -107 0
25 6 67 3 -97 18 0
-107 57 70 16 -30 0
79 -32 4 82 -78 0
108 -3 13 66 -41 -98 0
41 -33 39 19 -10 0
21 102 96 0
-52 -45 -38 0
91 -95 -61 0
-12 74 -55 15 -27 20 0
29 -107 -44 -46 -90 0
110 0
